# Solution for model OBJROW
# Objective value = 23
C 23
x(j0,m1) 4
x(j0,m2) 0
x(j0,m0) 12
x(j1,m0) 11
x(j1,m1) 0
x(j1,m2) 12
x(j2,m0) 0
x(j2,m1) 11
x(j2,m2) 20
y(j0,k1,m0) 0
y(j0,k1,m1) 0
y(j0,k1,m2) 1
y(j0,k2,m0) 0
y(j0,k2,m1) 1
y(j0,k2,m2) 1
y(j1,k0,m0) 1
y(j1,k0,m1) 1
y(j1,k0,m2) 0
y(j1,k2,m0) 0
y(j1,k2,m1) 1
y(j1,k2,m2) 1
y(j2,k0,m0) 1
y(j2,k0,m1) 0
y(j2,k0,m2) 0
y(j2,k1,m0) 1
y(j2,k1,m1) 0
y(j2,k1,m2) 0
